(set-logic HORN)
(declare-datatypes ((Nat_1 0)) (((Z_1 ) (S_1 (unS_0 Nat_1)))))
(declare-fun diseqNat_0 (Nat_1 Nat_1) Bool)
(declare-fun unS_1 (Nat_1 Nat_1) Bool)
(declare-fun isZ_0 (Nat_1) Bool)
(declare-fun isS_0 (Nat_1) Bool)
(assert (forall ((x_29 Nat_1) (x_28 Nat_1))
	(=> (= x_29 (S_1 x_28))
	    (unS_1 x_28 x_29))))
(assert (isZ_0 Z_1))
(assert (forall ((x_30 Nat_1))
	(isS_0 (S_1 x_30))))
(assert (forall ((x_31 Nat_1))
	(diseqNat_0 Z_1 (S_1 x_31))))
(assert (forall ((x_32 Nat_1))
	(diseqNat_0 (S_1 x_32) Z_1)))
(assert (forall ((x_33 Nat_1) (x_34 Nat_1))
	(=> (diseqNat_0 x_33 x_34)
	    (diseqNat_0 (S_1 x_33) (S_1 x_34)))))
(declare-fun add_0 (Nat_1 Nat_1 Nat_1) Bool)
(declare-fun minus_0 (Nat_1 Nat_1 Nat_1) Bool)
(declare-fun le_0 (Nat_1 Nat_1) Bool)
(declare-fun ge_0 (Nat_1 Nat_1) Bool)
(declare-fun lt_0 (Nat_1 Nat_1) Bool)
(declare-fun gt_0 (Nat_1 Nat_1) Bool)
(declare-fun mult_0 (Nat_1 Nat_1 Nat_1) Bool)
(declare-fun div_0 (Nat_1 Nat_1 Nat_1) Bool)
(declare-fun mod_0 (Nat_1 Nat_1 Nat_1) Bool)
(assert (forall ((y_4 Nat_1))
	(add_0 y_4 Z_1 y_4)))
(assert (forall ((x_26 Nat_1) (y_4 Nat_1) (r_0 Nat_1))
	(=> (add_0 r_0 x_26 y_4)
	    (add_0 (S_1 r_0) (S_1 x_26) y_4))))
(assert (forall ((y_4 Nat_1))
	(minus_0 Z_1 Z_1 y_4)))
(assert (forall ((x_26 Nat_1) (y_4 Nat_1) (r_0 Nat_1))
	(=> (minus_0 r_0 x_26 y_4)
	    (minus_0 (S_1 r_0) (S_1 x_26) y_4))))
(assert (forall ((y_4 Nat_1))
	(le_0 Z_1 y_4)))
(assert (forall ((x_26 Nat_1) (y_4 Nat_1))
	(=> (le_0 x_26 y_4)
	    (le_0 (S_1 x_26) (S_1 y_4)))))
(assert (forall ((y_4 Nat_1))
	(ge_0 y_4 Z_1)))
(assert (forall ((x_26 Nat_1) (y_4 Nat_1))
	(=> (ge_0 x_26 y_4)
	    (ge_0 (S_1 x_26) (S_1 y_4)))))
(assert (forall ((y_4 Nat_1))
	(lt_0 Z_1 (S_1 y_4))))
(assert (forall ((x_26 Nat_1) (y_4 Nat_1))
	(=> (lt_0 x_26 y_4)
	    (lt_0 (S_1 x_26) (S_1 y_4)))))
(assert (forall ((y_4 Nat_1))
	(gt_0 (S_1 y_4) Z_1)))
(assert (forall ((x_26 Nat_1) (y_4 Nat_1))
	(=> (gt_0 x_26 y_4)
	    (gt_0 (S_1 x_26) (S_1 y_4)))))
(assert (forall ((y_4 Nat_1))
	(mult_0 Z_1 Z_1 y_4)))
(assert (forall ((x_26 Nat_1) (y_4 Nat_1) (r_0 Nat_1) (z_3 Nat_1))
	(=>	(and (mult_0 r_0 x_26 y_4)
			(add_0 z_3 r_0 y_4))
		(mult_0 z_3 (S_1 x_26) y_4))))
(assert (forall ((x_26 Nat_1) (y_4 Nat_1))
	(=> (lt_0 x_26 y_4)
	    (div_0 Z_1 x_26 y_4))))
(assert (forall ((x_26 Nat_1) (y_4 Nat_1) (r_0 Nat_1) (z_3 Nat_1))
	(=>	(and (ge_0 x_26 y_4)
			(minus_0 z_3 x_26 y_4)
			(div_0 r_0 z_3 y_4))
		(div_0 (S_1 r_0) x_26 y_4))))
(assert (forall ((x_26 Nat_1) (y_4 Nat_1))
	(=> (lt_0 x_26 y_4)
	    (mod_0 x_26 x_26 y_4))))
(assert (forall ((x_26 Nat_1) (y_4 Nat_1) (r_0 Nat_1) (z_3 Nat_1))
	(=>	(and (ge_0 x_26 y_4)
			(minus_0 z_3 x_26 y_4)
			(mod_0 r_0 z_3 y_4))
		(mod_0 r_0 x_26 y_4))))
(declare-datatypes ((Nat_0 0)) (((Z_0 ) (S_0 (projS_0 Nat_0)))))
(declare-fun diseqNat_1 (Nat_0 Nat_0) Bool)
(declare-fun projS_1 (Nat_0 Nat_0) Bool)
(declare-fun isZ_1 (Nat_0) Bool)
(declare-fun isS_1 (Nat_0) Bool)
(assert (forall ((x_37 Nat_0) (x_36 Nat_0))
	(=> (= x_37 (S_0 x_36))
	    (projS_1 x_36 x_37))))
(assert (isZ_1 Z_0))
(assert (forall ((x_38 Nat_0))
	(isS_1 (S_0 x_38))))
(assert (forall ((x_39 Nat_0))
	(diseqNat_1 Z_0 (S_0 x_39))))
(assert (forall ((x_40 Nat_0))
	(diseqNat_1 (S_0 x_40) Z_0)))
(assert (forall ((x_41 Nat_0) (x_42 Nat_0))
	(=> (diseqNat_1 x_41 x_42)
	    (diseqNat_1 (S_0 x_41) (S_0 x_42)))))
(declare-datatypes ((list_0 0)) (((nil_0 ) (cons_0 (head_0 Nat_0) (tail_0 list_0)))))
(declare-fun diseqlist_0 (list_0 list_0) Bool)
(declare-fun head_1 (Nat_0 list_0) Bool)
(declare-fun tail_1 (list_0 list_0) Bool)
(declare-fun isnil_0 (list_0) Bool)
(declare-fun iscons_0 (list_0) Bool)
(assert (forall ((x_46 list_0) (x_44 Nat_0) (x_45 list_0))
	(=> (= x_46 (cons_0 x_44 x_45))
	    (head_1 x_44 x_46))))
(assert (forall ((x_46 list_0) (x_44 Nat_0) (x_45 list_0))
	(=> (= x_46 (cons_0 x_44 x_45))
	    (tail_1 x_45 x_46))))
(assert (isnil_0 nil_0))
(assert (forall ((x_47 Nat_0) (x_48 list_0))
	(iscons_0 (cons_0 x_47 x_48))))
(assert (forall ((x_49 Nat_0) (x_50 list_0))
	(diseqlist_0 nil_0 (cons_0 x_49 x_50))))
(assert (forall ((x_51 Nat_0) (x_52 list_0))
	(diseqlist_0 (cons_0 x_51 x_52) nil_0)))
(assert (forall ((x_53 Nat_0) (x_54 list_0) (x_55 Nat_0) (x_56 list_0))
	(=> (diseqNat_1 x_53 x_55)
	    (diseqlist_0 (cons_0 x_53 x_54) (cons_0 x_55 x_56)))))
(assert (forall ((x_53 Nat_0) (x_54 list_0) (x_55 Nat_0) (x_56 list_0))
	(=> (diseqlist_0 x_54 x_56)
	    (diseqlist_0 (cons_0 x_53 x_54) (cons_0 x_55 x_56)))))
(declare-fun x_0 (Bool Nat_0 Nat_0) Bool)
(assert (forall ((x_1 Nat_0) (y_0 Nat_0) (x_2 Nat_0) (y_1 Nat_0) (x_7 Bool) (x_8 Bool))
	(=>	(and (= x_7 x_8)
			(x_0 x_8 x_2 y_1)
			(= x_1 (S_0 x_2))
			(= y_0 (S_0 y_1)))
		(x_0 x_7 x_1 y_0))))
(assert (forall ((x_1 Nat_0) (y_0 Nat_0) (x_2 Nat_0) (x_9 Bool))
	(=>	(and (= x_9 false)
			(= x_1 (S_0 x_2))
			(= y_0 Z_0))
		(x_0 x_9 x_1 y_0))))
(assert (forall ((x_1 Nat_0) (y_0 Nat_0) (z_0 Nat_0) (x_10 Bool))
	(=>	(and (= x_10 false)
			(= x_1 Z_0)
			(= y_0 (S_0 z_0)))
		(x_0 x_10 x_1 y_0))))
(assert (forall ((x_1 Nat_0) (y_0 Nat_0) (x_11 Bool))
	(=>	(and (= x_11 true)
			(= x_1 Z_0)
			(= y_0 Z_0))
		(x_0 x_11 x_1 y_0))))
(declare-fun count_0 (Nat_0 Nat_0 list_0) Bool)
(assert (forall ((x_3 Nat_0) (y_2 list_0) (z_1 Nat_0) (ys_0 list_0) (x_13 Nat_0) (x_14 Nat_0) (x_12 Bool))
	(=>	(and (= x_13 (S_0 x_14))
			(count_0 x_14 x_3 ys_0)
			(= y_2 (cons_0 z_1 ys_0))
			(= x_12 true)
			(x_0 x_12 x_3 z_1))
		(count_0 x_13 x_3 y_2))))
(assert (forall ((x_3 Nat_0) (y_2 list_0) (z_1 Nat_0) (ys_0 list_0) (x_16 Nat_0) (x_17 Nat_0) (x_15 Bool))
	(=>	(and (= x_16 x_17)
			(count_0 x_17 x_3 ys_0)
			(= y_2 (cons_0 z_1 ys_0))
			(= x_15 false)
			(x_0 x_15 x_3 z_1))
		(count_0 x_16 x_3 y_2))))
(assert (forall ((x_3 Nat_0) (y_2 list_0) (x_18 Nat_0))
	(=>	(and (= x_18 Z_0)
			(= y_2 nil_0))
		(count_0 x_18 x_3 y_2))))
(declare-fun x_4 (Nat_0 Nat_0 Nat_0) Bool)
(assert (forall ((x_5 Nat_0) (y_3 Nat_0) (z_2 Nat_0) (x_19 Nat_0) (x_20 Nat_0))
	(=>	(and (= x_19 (S_0 x_20))
			(x_4 x_20 z_2 y_3)
			(= x_5 (S_0 z_2)))
		(x_4 x_19 x_5 y_3))))
(assert (forall ((x_5 Nat_0) (y_3 Nat_0) (x_21 Nat_0))
	(=>	(and (= x_21 y_3)
			(= x_5 Z_0))
		(x_4 x_21 x_5 y_3))))
(assert (forall ((n_0 Nat_0) (x_6 Nat_0) (xs_0 list_0) (x_22 Nat_0) (x_23 Nat_0) (x_24 Nat_0) (x_25 Nat_0))
	(=>	(and (diseqNat_1 x_24 x_25)
			(count_0 x_22 n_0 (cons_0 x_6 nil_0))
			(count_0 x_23 n_0 xs_0)
			(x_4 x_24 x_22 x_23)
			(count_0 x_25 n_0 (cons_0 x_6 xs_0)))
		false)))
(check-sat)
